NAME : mar30_1000_0
COMMENT : Data set with 30 points
COMMENT : CIn-UFPE
COMMENT : Contributed by Marcelo Lacerda
TYPE : TSP
DIMENSION : 30
EDGE_WEIGHT_TYPE : EUC_2D
NODE_COORD_SECTION
1 822 26
2 165 115
3 911 912
4 16 657
5 97 57
6 29 29
7 134 858
8 304 286
9 108 754
10 388 612
11 407 487
12 271 821
13 831 129
14 795 727
15 78 905
16 795 323
17 536 324
18 221 98
19 544 311
20 650 252
21 471 244
22 143 670
23 970 215
24 42 247
25 687 301
26 177 829
27 859 872
28 488 138
29 713 370
30 327 22
EOF
